N = 8;
H = 5;
T = 2;

avail = array3d(1..N, 1..H, 1..T, [3, 6, 3, 8, 6, 6, 0, 1, 8, 4, 4, 5, 0, 5, 8, 8, 5, 9, 5, 8, 10, 6, 7, 1, 4, 4, 5, 2, 10, 9, 6, 9, 0, 9, 8, 10, 2, 4, 2, 2, 10, 1, 9, 6, 9, 0, 4, 6, 5, 0, 10, 8, 0, 9, 3, 7, 5, 8, 0, 8, 6, 9, 0, 7, 10, 8, 4, 3, 7, 2, 10, 3, 4, 1, 9, 2, 4, 0, 10, 5]);

r = array2d(1..H, 1..T, [3, 1, 1, 3, 1, 1, 2, 2, 2, 2]);
